; benchmark generated from python API
(set-info :status unknown)
(declare-fun x_month () Int)
(declare-fun x_day () Int)
(declare-fun x_year () Int)
(assert
 (>= x_month 1))
(assert
 (<= x_month 12))
(assert
 (>= x_day 1))
(assert
 (<= x_day 31))
(assert
 (let (($x446 (<= x_day 28)))
 (let (($x366 (<= x_day 29)))
 (let (($x398 (= (mod x_year 400) 0)))
 (let (($x393 (= (mod x_year 4) 0)))
 (let (($x369 (ite (or (and $x393 (and (distinct (mod x_year 100) 0) true)) $x398) $x366 $x446)))
 (let (($x384 (= x_month 2)))
 (ite $x384 $x369 true))))))))
(assert
 (let (($x449 (<= x_day 30)))
 (let (($x452 (or (= x_month 4) (= x_month 6) (= x_month 9) (= x_month 11))))
 (ite $x452 $x449 true))))
(assert
 (let (($x468 (= x_year 2020)))
 (let (($x430 (and $x468 (or (> x_month 1) (and (= x_month 1) (>= x_day 1))))))
 (or (> x_year 2020) $x430))))
(assert
 (let (($x468 (= x_year 2020)))
 (let (($x417 (and $x468 (or (< x_month 2) (and (= x_month 2) (<= x_day 28))))))
 (or (< x_year 2020) $x417))))
(assert
 (let ((?x606 (+ (mod (- (+ x_month (+ (* 0 12) 0)) 1) 12) 1)))
(let ((?x674 (ite (or (= ?x606 4) (= ?x606 6) (= ?x606 9) (= ?x606 11)) 30 31)))
(let ((?x605 (+ 0 (div (- (+ x_month (+ (* 0 12) 0)) 1) 12))))
(let ((?x652 (+ x_year ?x605)))
(let (($x660 (or (and (= (mod ?x652 4) 0) (and (distinct (mod ?x652 100) 0) true)) (= (mod ?x652 400) 0))))
(let ((?x675 (ite (= ?x606 2) (ite $x660 29 28) ?x674)))
(let (($x264 (< x_day 1)))
(let ((?x667 (ite $x264 1 (ite (> x_day ?x675) ?x675 x_day))))
(let ((?x755 (ite (< ?x667 1) 1 (ite (> ?x667 ?x675) ?x675 ?x667))))
(let ((?x716 (ite (= 2 ?x606) (ite $x660 31 31) (ite (= 1 ?x606) (ite $x660 0 0) 0))))
(let ((?x710 (ite (= 4 ?x606) (ite $x660 91 90) (ite (= 3 ?x606) (ite $x660 60 59) ?x716))))
(let ((?x704 (ite (= 6 ?x606) (ite $x660 152 151) (ite (= 5 ?x606) (ite $x660 121 120) ?x710))))
(let ((?x698 (ite (= 8 ?x606) (ite $x660 213 212) (ite (= 7 ?x606) (ite $x660 182 181) ?x704))))
(let ((?x709 (ite (= 10 ?x606) (ite $x660 274 273) (ite (= 9 ?x606) (ite $x660 244 243) ?x698))))
(let ((?x756 (ite (= 12 ?x606) (ite $x660 335 334) (ite (= 11 ?x606) (ite $x660 305 304) ?x709))))
(let ((?x681 (- (+ (* 365 (- ?x652 1)) (div (- ?x652 1) 4)) (div (- ?x652 1) 100))))
(let ((?x749 (- (+ (+ (+ ?x681 (div (- ?x652 1) 400)) ?x756) (- ?x755 1)) 730179)))
(let ((?x746 (+ (+ ?x749 365) 730179)))
(let ((?x743 (mod ?x746 146097)))
(let ((?x744 (div ?x743 36524)))
(let ((?x741 (ite (<= 4 ?x744) 3 ?x744)))
(let ((?x738 (- ?x743 (* ?x741 36524))))
(let ((?x735 (mod ?x738 1461)))
(let ((?x731 (div ?x735 365)))
(let ((?x728 (ite (<= 4 ?x731) 3 ?x731)))
(let ((?x720 (+ (+ (* (div ?x746 146097) 400) (* ?x741 100)) (* (div ?x738 1461) 4))))
(let ((?x724 (+ (+ ?x720 ?x728) 1)))
(let (($x748 (or (and (= (mod ?x724 4) 0) (and (distinct (mod ?x724 100) 0) true)) (= (mod ?x724 400) 0))))
(let ((?x725 (- ?x735 (* ?x728 365))))
(let ((?x754 (ite $x748 31 31)))
(let (($x330 (>= ?x725 ?x754)))
(let ((?x270 (ite $x330 (+ (- ?x725 ?x754) 1) (+ (- ?x725 (ite $x748 0 0)) 1))))
(let ((?x757 (ite $x748 60 59)))
(let (($x324 (>= ?x725 ?x757)))
(let ((?x572 (ite $x748 91 90)))
(let (($x325 (>= ?x725 ?x572)))
(let ((?x280 (ite $x325 (+ (- ?x725 ?x572) 1) (ite $x324 (+ (- ?x725 ?x757) 1) ?x270))))
(let ((?x758 (ite $x748 121 120)))
(let (($x319 (>= ?x725 ?x758)))
(let ((?x318 (ite $x748 152 151)))
(let (($x320 (>= ?x725 ?x318)))
(let ((?x305 (ite $x320 (+ (- ?x725 ?x318) 1) (ite $x319 (+ (- ?x725 ?x758) 1) ?x280))))
(let ((?x323 (ite $x748 182 181)))
(let (($x314 (>= ?x725 ?x323)))
(let ((?x328 (ite $x748 213 212)))
(let (($x315 (>= ?x725 ?x328)))
(let ((?x769 (ite $x315 (+ (- ?x725 ?x328) 1) (ite $x314 (+ (- ?x725 ?x323) 1) ?x305))))
(let ((?x333 (ite $x748 244 243)))
(let (($x329 (>= ?x725 ?x333)))
(let ((?x338 (ite $x748 274 273)))
(let (($x335 (>= ?x725 ?x338)))
(let ((?x772 (ite $x335 (+ (- ?x725 ?x338) 1) (ite $x329 (+ (- ?x725 ?x333) 1) ?x769))))
(let ((?x343 (ite $x748 305 304)))
(let (($x352 (>= ?x725 ?x343)))
(let ((?x348 (ite $x748 335 334)))
(let (($x346 (>= ?x725 ?x348)))
(let ((?x778 (ite $x346 (+ (- ?x725 ?x348) 1) (ite $x352 (+ (- ?x725 ?x343) 1) ?x772))))
(let (($x574 (= 0 365)))
(let ((?x450 (+ (mod (- (+ x_month (+ (* 1 12) 0)) 1) 12) 1)))
(let ((?x392 (ite (or (= ?x450 4) (= ?x450 6) (= ?x450 9) (= ?x450 11)) 30 31)))
(let ((?x455 (+ 0 (div (- (+ x_month (+ (* 1 12) 0)) 1) 12))))
(let ((?x440 (+ x_year ?x455)))
(let (($x379 (or (and (= (mod ?x440 4) 0) (and (distinct (mod ?x440 100) 0) true)) (= (mod ?x440 400) 0))))
(let ((?x470 (ite (= ?x450 2) (ite $x379 29 28) ?x392)))
(let ((?x401 (ite $x264 1 (ite (> x_day ?x470) ?x470 x_day))))
(let ((?x251 (ite (< ?x401 1) 1 (ite (> ?x401 ?x470) ?x470 ?x401))))
(let ((?x472 (ite (= 2 ?x450) (ite $x379 31 31) (ite (= 1 ?x450) (ite $x379 0 0) 0))))
(let ((?x232 (ite (= 4 ?x450) (ite $x379 91 90) (ite (= 3 ?x450) (ite $x379 60 59) ?x472))))
(let ((?x505 (ite (= 6 ?x450) (ite $x379 152 151) (ite (= 5 ?x450) (ite $x379 121 120) ?x232))))
(let ((?x495 (ite (= 8 ?x450) (ite $x379 213 212) (ite (= 7 ?x450) (ite $x379 182 181) ?x505))))
(let ((?x490 (ite (= 10 ?x450) (ite $x379 274 273) (ite (= 9 ?x450) (ite $x379 244 243) ?x495))))
(let ((?x245 (ite (= 12 ?x450) (ite $x379 335 334) (ite (= 11 ?x450) (ite $x379 305 304) ?x490))))
(let ((?x253 (- (+ (* 365 (- ?x440 1)) (div (- ?x440 1) 4)) (div (- ?x440 1) 100))))
(let ((?x519 (- (+ (+ (+ ?x253 (div (- ?x440 1) 400)) ?x245) (- ?x251 1)) 730179)))
(let ((?x515 (+ (+ ?x519 0) 730179)))
(let ((?x530 (mod ?x515 146097)))
(let ((?x527 (div ?x530 36524)))
(let ((?x478 (ite (<= 4 ?x527) 3 ?x527)))
(let ((?x525 (- ?x530 (* ?x478 36524))))
(let ((?x506 (mod ?x525 1461)))
(let ((?x526 (div ?x506 365)))
(let ((?x522 (ite (<= 4 ?x526) 3 ?x526)))
(let ((?x521 (+ (+ (* (div ?x515 146097) 400) (* ?x478 100)) (* (div ?x525 1461) 4))))
(let ((?x207 (+ (+ ?x521 ?x522) 1)))
(let (($x247 (or (and (= (mod ?x207 4) 0) (and (distinct (mod ?x207 100) 0) true)) (= (mod ?x207 400) 0))))
(let ((?x529 (- ?x506 (* ?x522 365))))
(let ((?x289 (ite $x247 31 31)))
(let (($x611 (>= ?x529 ?x289)))
(let ((?x630 (ite $x611 (+ (- ?x529 ?x289) 1) (+ (- ?x529 (ite $x247 0 0)) 1))))
(let ((?x248 (ite $x247 60 59)))
(let (($x613 (>= ?x529 ?x248)))
(let ((?x575 (ite $x247 91 90)))
(let (($x578 (>= ?x529 ?x575)))
(let ((?x621 (ite $x578 (+ (- ?x529 ?x575) 1) (ite $x613 (+ (- ?x529 ?x248) 1) ?x630))))
(let ((?x576 (ite $x247 121 120)))
(let (($x648 (>= ?x529 ?x576)))
(let ((?x577 (ite $x247 152 151)))
(let (($x584 (>= ?x529 ?x577)))
(let ((?x617 (ite $x584 (+ (- ?x529 ?x577) 1) (ite $x648 (+ (- ?x529 ?x576) 1) ?x621))))
(let ((?x579 (ite $x247 182 181)))
(let (($x586 (>= ?x529 ?x579)))
(let ((?x581 (ite $x247 213 212)))
(let (($x588 (>= ?x529 ?x581)))
(let ((?x635 (ite $x588 (+ (- ?x529 ?x581) 1) (ite $x586 (+ (- ?x529 ?x579) 1) ?x617))))
(let ((?x607 (ite $x247 244 243)))
(let (($x590 (>= ?x529 ?x607)))
(let ((?x608 (ite $x247 274 273)))
(let (($x645 (>= ?x529 ?x608)))
(let ((?x651 (ite $x645 (+ (- ?x529 ?x608) 1) (ite $x590 (+ (- ?x529 ?x607) 1) ?x635))))
(let ((?x609 (ite $x247 305 304)))
(let (($x642 (>= ?x529 ?x609)))
(let ((?x610 (ite $x247 335 334)))
(let (($x639 (>= ?x529 ?x610)))
(let ((?x594 (ite $x639 (+ (- ?x529 ?x610) 1) (ite $x642 (+ (- ?x529 ?x609) 1) ?x651))))
(let (($x448 (= 0 0)))
(let ((?x321 (ite $x319 5 (ite $x325 4 (ite $x324 3 (ite $x330 2 1))))))
(let ((?x337 (ite $x329 9 (ite $x315 8 (ite $x314 7 (ite $x320 6 ?x321))))))
(let ((?x345 (ite $x346 12 (ite $x352 11 (ite $x335 10 ?x337)))))
(let ((?x583 (ite $x648 5 (ite $x578 4 (ite $x613 3 (ite $x611 2 1))))))
(let ((?x649 (ite $x590 9 (ite $x588 8 (ite $x586 7 (ite $x584 6 ?x583))))))
(let (($x431 (= (ite $x448 ?x450 (ite $x639 12 (ite $x642 11 (ite $x645 10 ?x649)))) (ite $x574 ?x606 ?x345))))
(let (($x782 (and (= (ite $x448 ?x440 ?x207) (ite $x574 ?x652 ?x724)) $x431 (= (ite $x448 ?x251 ?x594) (ite $x574 ?x755 ?x778)))))
(not $x782))))))))))))))))))))))))))))))))))))))))))))))))))))))))))))))))))))))))))))))))))))))))))))))))))))))))))))))))))))))))))))
(check-sat)
